0 4396
2401 4308
4802 4236
7203 4159
9604 4090
12005 4036
14406 3978
16807 3940
19208 3883
21609 3846
24010 3805
26411 3779
28812 3754
31213 3731
33614 3708
36015 3681
38416 3666
40817 3643
43218 3636
45619 3635
48020 3632
50421 3624
52822 3608
55223 3602
57624 3598
81634 3591
84035 3580
86436 3557
88837 3551
91238 3550
93639 3542
96040 3531
98441 3523
100842 3518
103243 3515
105644 3505
108045 3503
112847 3502
170471 3501
172872 3500
175273 3488
177674 3487
192080 3484
201684 3483
204085 3482
